000 000 000 000 -99 -99 000 000 -99 -99 -99 -99 -99 000 000 -99 -99 -99 000 000 000 000 000 000 -99 -99 -99 -99 -99 -99 -99
000 000 000 000 000 000 000 000 -99 -99 -99 -99 -99 000 000 000 -99 -99 -99 000 000 000 000 000 000 -99 -99 -99 -99 -99 -99
000 000 000 000 000 000 000 -99 000 -99 -99 -99 -99 -99 000 000 -99 -99 -99 000 000 000 000 000 000 -99 -99 -99 -99 -99 -99
000 000 000 000 000 000 000 -99 000 -99 -99 -99 -99 -99 -99 000 -99 -99 -99 -99 000 000 000 000 -99 -99 -99 -99 -99 -99 -99
000 000 000 000 000 000 000 000 000 000 -99 -99 000 -99 -99 000 -99 -99 -99 -99 000 000 -99 -99 -99 -99 -99 -99 -99 -99 -99
000 000 000 000 000 000 000 000 000 000 -99 000 000 000 000 000 -99 -99 -99 -99 000 000 000 -99 -99 -99 -99 -99 -99 -99 000
000 000 000 000 000 000 000 000 000 -99 -99 000 000 000 000 000 -99 -99 -99 -99 -99 000 000 -99 -99 -99 -99 -99 -99 -99 -99
000 000 000 000 000 000 000 -99 000 000 -99 -99 000 000 -99 -99 000 000 000 -99 000 000 000 -99 -99 -99 -99 -99 -99 -99 -99
000 000 000 000 000 000 -99 000 000 000 000 000 -99 000 000 -99 000 000 000 -99 000 000 -99 -99 -99 -99 -99 -99 -99 -99 -99
000 000 000 000 000 000 000 000 000 000 000 000 -99 -99 -99 -99 000 000 000 -99 000 000 -99 -99 -99 -99 000 -99 -99 -99 -99
-99 000 -99 000 000 000 000 000 000 000 000 000 000 -99 -99 000 000 000 000 000 000 000 -99 -99 -99 -99 000 -99 -99 000 000
000 000 000 000 000 000 000 000 000 000 000 000 000 000 -99 000 000 000 000 000 000 000 -99 000 -99 -99 -99 -99 -99 000 000
000 000 000 000 000 000 000 000 -99 000 000 000 000 000 -99 000 000 000 000 000 000 -99 -99 000 000 000 -99 -99 -99 000 000
000 000 000 000 000 000 000 000 000 -99 000 000 000 000 -99 000 000 -99 000 000 000 -99 -99 000 000 000 000 -99 -99 -99 000
000 000 000 000 000 000 000 000 000 -99 -99 -99 000 000 000 000 000 000 000 000 000 -99 -99 000 000 000 000 000 -99 -99 -99
000 000 000 000 000 000 000 000 000 -99 -99 -99 -99 000 000 000 000 000 000 -99 -99 -99 -99 000 000 000 000 000 000 -99 -99
000 000 000 000 -99 -99 000 000 000 -99 -99 -99 -99 000 000 000 000 000 000 -99 -99 -99 -99 000 000 000 000 000 000 000 -99
000 000 000 -99 -99 -99 000 000 000 000 000 000 000 -99 000 000 000 -99 000 000 000 -99 -99 -99 000 -99 000 000 -99 000 000
000 000 000 -99 -99 -99 -99 -99 000 000 000 000 000 000 000 000 000 000 000 000 -99 -99 000 -99 -99 000 -99 -99 -99 000 000
000 000 000 000 -99 -99 000 000 000 000 000 000 000 000 000 000 000 000 000 000 000 -99 -99 -99 -99 -99 -99 -99 -99 -99 -99
000 000 000 -99 -99 -99 -99 -99 -99 000 000 000 000 000 000 000 000 000 000 000 000 -99 -99 -99 -99 -99 -99 -99 -99 -99 -99
000 000 000 -99 000 -99 -99 -99 -99 000 000 000 000 000 000 000 000 000 000 -99 -99 -99 -99 -99 -99 -99 -99 -99 -99 -99 -99
000 000 000 000 000 000 -99 -99 -99 000 000 000 000 000 000 000 000 000 000 -99 -99 -99 -99 -99 -99 -99 -99 -99 -99 -99 -99
000 000 000 000 000 000 000 000 -99 000 -99 -99 000 000 000 000 000 000 -99 -99 -99 000 -99 -99 -99 -99 -99 -99 -99 -99 -99
000 000 000 000 000 000 000 000 000 000 -99 000 000 000 000 -99 000 000 -99 -99 000 000 -99 -99 -99 -99 -99 -99 -99 -99 -99
000 000 000 000 000 000 000 000 000 000 000 -99 000 -99 -99 -99 -99 -99 -99 -99 000 000 -99 -99 -99 -99 -99 -99 -99 000 000
000 000 000 -99 000 -99 000 000 000 000 000 -99 000 000 -99 -99 -99 -99 000 000 000 000 -99 -99 -99 -99 -99 -99 -99 001 000
-99 000 000 000 000 -99 -99 000 000 000 -99 -99 000 -99 -99 -99 -99 000 000 000 000 000 -99 -99 -99 -99 -99 -99 003 003 001
000 -99 000 000 000 -99 -99 000 000 000 000 000 -99 -99 -99 -99 -99 000 000 000 000 001 -99 -99 -99 003 004 -99 004 003 003
000 -99 -99 000 000 -99 -99 -99 000 000 000 000 -99 -99 -99 -99 -99 000 000 000 000 000 001 001 003 003 005 007 007 005 004
000 -99 000 000 -99 -99 -99 -99 000 000 000 000 000 000 -99 -99 -99 000 000 000 000 001 002 001 005 004 005 007 009 006 005
000 -99 000 000 -99 -99 -99 -99 000 000 000 000 000 000 -99 -99 000 000 000 000 000 001 002 002 006 004 004 006 011 008 005
000 000 000 000 000 -99 -99 000 000 000 000 000 000 000 -99 -99 000 000 000 000 000 001 001 002 004 003 004 006 005 007 006
000 000 000 000 000 000 000 000 000 000 000 000 000 000 -99 000 000 000 000 000 001 001 001 002 002 003 003 004 006 007 006
000 000 000 000 000 000 000 000 000 000 000 000 000 000 000 000 000 000 000 001 000 000 001 001 002 002 003 004 005 008 005
000 000 000 000 000 000 000 000 000 000 000 000 000 000 000 000 000 -99 000 000 000 000 000 001 001 001 002 003 005 003 003
000 000 000 000 000 000 000 000 000 000 000 000 000 000 000 000 000 -99 000 000 000 000 000 000 000 001 001 003 002 001 001
000 000 000 000 000 000 000 000 000 000 000 000 000 000 000 000 000 000 000 000 000 000 000 000 000 000 001 001 001 001 001
000 000 000 000 000 000 001 000 000 000 000 000 000 000 000 000 000 000 000 000 000 000 000 000 000 000 001 001 001 001 001
000 000 000 000 000 000 000 000 001 000 001 000 000 000 000 000 000 000 000 000 000 000 000 000 000 000 001 001 000 001 002
000 000 000 000 000 000 000 001 001 001 001 001 000 000 000 000 000 000 000 000 000 000 000 000 000 000 000 000 000 001 001
000 000 000 000 000 000 000 000 001 001 001 001 001 001 000 000 000 000 000 000 000 000 000 000 000 000 000 000 000 001 001
000 000 000 000 001 000 000 000 000 001 002 001 001 000 000 000 -99 000 000 000 000 000 000 000 000 000 000 000 000 001 002
000 -99 -99 006 003 000 000 000 000 001 001 001 000 000 000 000 -99 000 000 000 000 000 -99 000 000 -99 -99 000 000 002 002
000 -99 016 064 001 000 000 000 000 000 000 000 000 000 000 000 000 000 000 000 -99 000 -99 000 000 -99 000 000 001 002 001
-99 -99 -99 016 -99 000 000 000 000 000 000 000 000 000 000 000 000 000 000 000 000 -99 -99 000 000 -99 000 -99 -99 -99 000
-99 -99 -99 -99 -99 -99 -99 000 000 000 000 000 000 000 000 000 -99 000 000 000 000 000 000 000 000 000 -99 -99 -99 -99 000
-99 -99 -99 -99 -99 -99 -99 -99 -99 000 -99 000 000 000 000 -99 -99 000 000 000 000 000 000 -99 000 000 -99 000 000 -99 000
-99 -99 -99 -99 -99 -99 -99 -99 000 000 -99 -99 000 000 000 -99 -99 000 000 000 000 -99 -99 000 000 000 -99 000 -99 -99 -99
-99 -99 -99 -99 -99 -99 -99 000 000 000 000 -99 000 000 000 -99 000 000 000 000 000 -99 -99 000 000 000 000 -99 -99 -99 -99
-99 -99 -99 -99 -99 -99 -99 -99 000 000 000 -99 000 000 -99 -99 -99 000 000 000 000 -99 -99 -99 -99 -99 -99 -99 -99 -99 -99
-99 -99 -99 -99 -99 -99 -99 -99 000 000 000 -99 -99 -99 -99 -99 -99 000 000 000 -99 -99 -99 -99 -99 -99 -99 -99 -99 -99 000
000 -99 -99 -99 -99 -99 000 -99 -99 000 000 000 -99 -99 -99 -99 -99 000 000 000 -99 -99 -99 -99 -99 -99 -99 -99 -99 -99 -99
000 000 000 -99 000 000 000 -99 -99 000 000 -99 -99 -99 -99 -99 000 000 000 -99 -99 -99 -99 -99 -99 -99 -99 -99 -99 -99 -99
000 000 000 000 -99 000 -99 -99 -99 000 -99 -99 -99 -99 -99 -99 -99 000 -99 -99 -99 -99 -99 -99 -99 -99 -99 -99 -99 -99 -99
